p cnf 128 2286
1 2 3 4 5 6 7 8  0
9 10 11 12 13 14 15 16  0
17 18 19 20 21 22 23 24  0
25 26 27 28 29 30 31 32  0
33 34 35 36 37 38 39 40  0
41 42 43 44 45 46 47 48  0
49 50 51 52 53 54 55 56  0
57 58 59 60 61 62 63 64  0
65 66 67 68 69 70 71 72  0
73 74 75 76 77 78 79 80  0
81 82 83 84 85 86 87 88  0
89 90 91 92 93 94 95 96  0
97 98 99 100 101 102 103 104  0
105 106 107 108 109 110 111 112  0
113 114 115 116 117 118 119 120  0
121 122 123 124 125 126 127 128  0
-1 -16 0
-1 -8 0
-1 -24 0
-1 -17 0
-1 -9 0
-1 -25 0
-1 -2 0
-1 -18 0
-1 -10 0
-1 -26 0
-2 -1 0
-2 -17 0
-2 -9 0
-2 -25 0
-2 -18 0
-2 -10 0
-2 -26 0
-2 -3 0
-2 -19 0
-2 -11 0
-2 -27 0
-3 -2 0
-3 -18 0
-3 -10 0
-3 -26 0
-3 -19 0
-3 -11 0
-3 -27 0
-3 -4 0
-3 -20 0
-3 -12 0
-3 -28 0
-4 -3 0
-4 -19 0
-4 -11 0
-4 -27 0
-4 -20 0
-4 -12 0
-4 -28 0
-4 -5 0
-4 -21 0
-4 -13 0
-4 -29 0
-5 -4 0
-5 -20 0
-5 -12 0
-5 -28 0
-5 -21 0
-5 -13 0
-5 -29 0
-5 -6 0
-5 -22 0
-5 -14 0
-5 -30 0
-6 -5 0
-6 -21 0
-6 -13 0
-6 -29 0
-6 -22 0
-6 -14 0
-6 -30 0
-6 -7 0
-6 -23 0
-6 -15 0
-6 -31 0
-7 -6 0
-7 -22 0
-7 -14 0
-7 -30 0
-7 -23 0
-7 -15 0
-7 -31 0
-7 -8 0
-7 -24 0
-7 -16 0
-7 -32 0
-8 -7 0
-8 -23 0
-8 -15 0
-8 -31 0
-8 -24 0
-8 -16 0
-8 -32 0
-8 -9 0
-8 -25 0
-8 -17 0
-8 -1 0
-8 -33 0
-9 -8 0
-9 -24 0
-9 -16 0
-9 -32 0
-9 -25 0
-9 -17 0
-9 -1 0
-9 -33 0
-9 -10 0
-9 -26 0
-9 -18 0
-9 -2 0
-9 -34 0
-10 -9 0
-10 -25 0
-10 -17 0
-10 -1 0
-10 -33 0
-10 -26 0
-10 -18 0
-10 -2 0
-10 -34 0
-10 -11 0
-10 -27 0
-10 -19 0
-10 -3 0
-10 -35 0
-11 -10 0
-11 -26 0
-11 -18 0
-11 -2 0
-11 -34 0
-11 -27 0
-11 -19 0
-11 -3 0
-11 -35 0
-11 -12 0
-11 -28 0
-11 -20 0
-11 -4 0
-11 -36 0
-12 -11 0
-12 -27 0
-12 -19 0
-12 -3 0
-12 -35 0
-12 -28 0
-12 -20 0
-12 -4 0
-12 -36 0
-12 -13 0
-12 -29 0
-12 -21 0
-12 -5 0
-12 -37 0
-13 -12 0
-13 -28 0
-13 -20 0
-13 -4 0
-13 -36 0
-13 -29 0
-13 -21 0
-13 -5 0
-13 -37 0
-13 -14 0
-13 -30 0
-13 -22 0
-13 -6 0
-13 -38 0
-14 -13 0
-14 -29 0
-14 -21 0
-14 -5 0
-14 -37 0
-14 -30 0
-14 -22 0
-14 -6 0
-14 -38 0
-14 -15 0
-14 -31 0
-14 -23 0
-14 -7 0
-14 -39 0
-15 -14 0
-15 -30 0
-15 -22 0
-15 -6 0
-15 -38 0
-15 -31 0
-15 -23 0
-15 -7 0
-15 -39 0
-15 -16 0
-15 -32 0
-15 -24 0
-15 -8 0
-15 -40 0
-16 -15 0
-16 -31 0
-16 -23 0
-16 -7 0
-16 -39 0
-16 -32 0
-16 -24 0
-16 -8 0
-16 -40 0
-16 -17 0
-16 -33 0
-16 -1 0
-16 -25 0
-16 -9 0
-16 -41 0
-17 -16 0
-17 -32 0
-17 -24 0
-17 -8 0
-17 -40 0
-17 -33 0
-17 -1 0
-17 -25 0
-17 -9 0
-17 -41 0
-17 -18 0
-17 -34 0
-17 -2 0
-17 -26 0
-17 -10 0
-17 -42 0
-18 -17 0
-18 -33 0
-18 -1 0
-18 -25 0
-18 -9 0
-18 -41 0
-18 -34 0
-18 -2 0
-18 -26 0
-18 -10 0
-18 -42 0
-18 -19 0
-18 -35 0
-18 -3 0
-18 -27 0
-18 -11 0
-18 -43 0
-19 -18 0
-19 -34 0
-19 -2 0
-19 -26 0
-19 -10 0
-19 -42 0
-19 -35 0
-19 -3 0
-19 -27 0
-19 -11 0
-19 -43 0
-19 -20 0
-19 -36 0
-19 -4 0
-19 -28 0
-19 -12 0
-19 -44 0
-20 -19 0
-20 -35 0
-20 -3 0
-20 -27 0
-20 -11 0
-20 -43 0
-20 -36 0
-20 -4 0
-20 -28 0
-20 -12 0
-20 -44 0
-20 -21 0
-20 -37 0
-20 -5 0
-20 -29 0
-20 -13 0
-20 -45 0
-21 -20 0
-21 -36 0
-21 -4 0
-21 -28 0
-21 -12 0
-21 -44 0
-21 -37 0
-21 -5 0
-21 -29 0
-21 -13 0
-21 -45 0
-21 -22 0
-21 -38 0
-21 -6 0
-21 -30 0
-21 -14 0
-21 -46 0
-22 -21 0
-22 -37 0
-22 -5 0
-22 -29 0
-22 -13 0
-22 -45 0
-22 -38 0
-22 -6 0
-22 -30 0
-22 -14 0
-22 -46 0
-22 -23 0
-22 -39 0
-22 -7 0
-22 -31 0
-22 -15 0
-22 -47 0
-23 -22 0
-23 -38 0
-23 -6 0
-23 -30 0
-23 -14 0
-23 -46 0
-23 -39 0
-23 -7 0
-23 -31 0
-23 -15 0
-23 -47 0
-23 -24 0
-23 -40 0
-23 -8 0
-23 -32 0
-23 -16 0
-23 -48 0
-24 -23 0
-24 -39 0
-24 -7 0
-24 -31 0
-24 -15 0
-24 -47 0
-24 -40 0
-24 -8 0
-24 -32 0
-24 -16 0
-24 -48 0
-24 -25 0
-24 -41 0
-24 -9 0
-24 -33 0
-24 -17 0
-24 -49 0
-24 -1 0
-25 -24 0
-25 -40 0
-25 -8 0
-25 -32 0
-25 -16 0
-25 -48 0
-25 -41 0
-25 -9 0
-25 -33 0
-25 -17 0
-25 -49 0
-25 -1 0
-25 -26 0
-25 -42 0
-25 -10 0
-25 -34 0
-25 -18 0
-25 -50 0
-25 -2 0
-26 -25 0
-26 -41 0
-26 -9 0
-26 -33 0
-26 -17 0
-26 -49 0
-26 -1 0
-26 -42 0
-26 -10 0
-26 -34 0
-26 -18 0
-26 -50 0
-26 -2 0
-26 -27 0
-26 -43 0
-26 -11 0
-26 -35 0
-26 -19 0
-26 -51 0
-26 -3 0
-27 -26 0
-27 -42 0
-27 -10 0
-27 -34 0
-27 -18 0
-27 -50 0
-27 -2 0
-27 -43 0
-27 -11 0
-27 -35 0
-27 -19 0
-27 -51 0
-27 -3 0
-27 -28 0
-27 -44 0
-27 -12 0
-27 -36 0
-27 -20 0
-27 -52 0
-27 -4 0
-28 -27 0
-28 -43 0
-28 -11 0
-28 -35 0
-28 -19 0
-28 -51 0
-28 -3 0
-28 -44 0
-28 -12 0
-28 -36 0
-28 -20 0
-28 -52 0
-28 -4 0
-28 -29 0
-28 -45 0
-28 -13 0
-28 -37 0
-28 -21 0
-28 -53 0
-28 -5 0
-29 -28 0
-29 -44 0
-29 -12 0
-29 -36 0
-29 -20 0
-29 -52 0
-29 -4 0
-29 -45 0
-29 -13 0
-29 -37 0
-29 -21 0
-29 -53 0
-29 -5 0
-29 -30 0
-29 -46 0
-29 -14 0
-29 -38 0
-29 -22 0
-29 -54 0
-29 -6 0
-30 -29 0
-30 -45 0
-30 -13 0
-30 -37 0
-30 -21 0
-30 -53 0
-30 -5 0
-30 -46 0
-30 -14 0
-30 -38 0
-30 -22 0
-30 -54 0
-30 -6 0
-30 -31 0
-30 -47 0
-30 -15 0
-30 -39 0
-30 -23 0
-30 -55 0
-30 -7 0
-31 -30 0
-31 -46 0
-31 -14 0
-31 -38 0
-31 -22 0
-31 -54 0
-31 -6 0
-31 -47 0
-31 -15 0
-31 -39 0
-31 -23 0
-31 -55 0
-31 -7 0
-31 -32 0
-31 -48 0
-31 -16 0
-31 -40 0
-31 -24 0
-31 -56 0
-31 -8 0
-32 -31 0
-32 -47 0
-32 -15 0
-32 -39 0
-32 -23 0
-32 -55 0
-32 -7 0
-32 -48 0
-32 -16 0
-32 -40 0
-32 -24 0
-32 -56 0
-32 -8 0
-32 -33 0
-32 -49 0
-32 -17 0
-32 -41 0
-32 -25 0
-32 -57 0
-32 -9 0
-33 -32 0
-33 -48 0
-33 -16 0
-33 -40 0
-33 -24 0
-33 -56 0
-33 -8 0
-33 -49 0
-33 -17 0
-33 -41 0
-33 -25 0
-33 -57 0
-33 -9 0
-33 -34 0
-33 -50 0
-33 -18 0
-33 -42 0
-33 -26 0
-33 -58 0
-33 -10 0
-34 -33 0
-34 -49 0
-34 -17 0
-34 -41 0
-34 -25 0
-34 -57 0
-34 -9 0
-34 -50 0
-34 -18 0
-34 -42 0
-34 -26 0
-34 -58 0
-34 -10 0
-34 -35 0
-34 -51 0
-34 -19 0
-34 -43 0
-34 -27 0
-34 -59 0
-34 -11 0
-35 -34 0
-35 -50 0
-35 -18 0
-35 -42 0
-35 -26 0
-35 -58 0
-35 -10 0
-35 -51 0
-35 -19 0
-35 -43 0
-35 -27 0
-35 -59 0
-35 -11 0
-35 -36 0
-35 -52 0
-35 -20 0
-35 -44 0
-35 -28 0
-35 -60 0
-35 -12 0
-36 -35 0
-36 -51 0
-36 -19 0
-36 -43 0
-36 -27 0
-36 -59 0
-36 -11 0
-36 -52 0
-36 -20 0
-36 -44 0
-36 -28 0
-36 -60 0
-36 -12 0
-36 -37 0
-36 -53 0
-36 -21 0
-36 -45 0
-36 -29 0
-36 -61 0
-36 -13 0
-37 -36 0
-37 -52 0
-37 -20 0
-37 -44 0
-37 -28 0
-37 -60 0
-37 -12 0
-37 -53 0
-37 -21 0
-37 -45 0
-37 -29 0
-37 -61 0
-37 -13 0
-37 -38 0
-37 -54 0
-37 -22 0
-37 -46 0
-37 -30 0
-37 -62 0
-37 -14 0
-38 -37 0
-38 -53 0
-38 -21 0
-38 -45 0
-38 -29 0
-38 -61 0
-38 -13 0
-38 -54 0
-38 -22 0
-38 -46 0
-38 -30 0
-38 -62 0
-38 -14 0
-38 -39 0
-38 -55 0
-38 -23 0
-38 -47 0
-38 -31 0
-38 -63 0
-38 -15 0
-39 -38 0
-39 -54 0
-39 -22 0
-39 -46 0
-39 -30 0
-39 -62 0
-39 -14 0
-39 -55 0
-39 -23 0
-39 -47 0
-39 -31 0
-39 -63 0
-39 -15 0
-39 -40 0
-39 -56 0
-39 -24 0
-39 -48 0
-39 -32 0
-39 -64 0
-39 -16 0
-40 -39 0
-40 -55 0
-40 -23 0
-40 -47 0
-40 -31 0
-40 -63 0
-40 -15 0
-40 -56 0
-40 -24 0
-40 -48 0
-40 -32 0
-40 -64 0
-40 -16 0
-40 -41 0
-40 -57 0
-40 -25 0
-40 -49 0
-40 -33 0
-40 -65 0
-40 -17 0
-41 -40 0
-41 -56 0
-41 -24 0
-41 -48 0
-41 -32 0
-41 -64 0
-41 -16 0
-41 -57 0
-41 -25 0
-41 -49 0
-41 -33 0
-41 -65 0
-41 -17 0
-41 -42 0
-41 -58 0
-41 -26 0
-41 -50 0
-41 -34 0
-41 -66 0
-41 -18 0
-42 -41 0
-42 -57 0
-42 -25 0
-42 -49 0
-42 -33 0
-42 -65 0
-42 -17 0
-42 -58 0
-42 -26 0
-42 -50 0
-42 -34 0
-42 -66 0
-42 -18 0
-42 -43 0
-42 -59 0
-42 -27 0
-42 -51 0
-42 -35 0
-42 -67 0
-42 -19 0
-43 -42 0
-43 -58 0
-43 -26 0
-43 -50 0
-43 -34 0
-43 -66 0
-43 -18 0
-43 -59 0
-43 -27 0
-43 -51 0
-43 -35 0
-43 -67 0
-43 -19 0
-43 -44 0
-43 -60 0
-43 -28 0
-43 -52 0
-43 -36 0
-43 -68 0
-43 -20 0
-44 -43 0
-44 -59 0
-44 -27 0
-44 -51 0
-44 -35 0
-44 -67 0
-44 -19 0
-44 -60 0
-44 -28 0
-44 -52 0
-44 -36 0
-44 -68 0
-44 -20 0
-44 -45 0
-44 -61 0
-44 -29 0
-44 -53 0
-44 -37 0
-44 -69 0
-44 -21 0
-45 -44 0
-45 -60 0
-45 -28 0
-45 -52 0
-45 -36 0
-45 -68 0
-45 -20 0
-45 -61 0
-45 -29 0
-45 -53 0
-45 -37 0
-45 -69 0
-45 -21 0
-45 -46 0
-45 -62 0
-45 -30 0
-45 -54 0
-45 -38 0
-45 -70 0
-45 -22 0
-46 -45 0
-46 -61 0
-46 -29 0
-46 -53 0
-46 -37 0
-46 -69 0
-46 -21 0
-46 -62 0
-46 -30 0
-46 -54 0
-46 -38 0
-46 -70 0
-46 -22 0
-46 -47 0
-46 -63 0
-46 -31 0
-46 -55 0
-46 -39 0
-46 -71 0
-46 -23 0
-47 -46 0
-47 -62 0
-47 -30 0
-47 -54 0
-47 -38 0
-47 -70 0
-47 -22 0
-47 -63 0
-47 -31 0
-47 -55 0
-47 -39 0
-47 -71 0
-47 -23 0
-47 -48 0
-47 -64 0
-47 -32 0
-47 -56 0
-47 -40 0
-47 -72 0
-47 -24 0
-48 -47 0
-48 -63 0
-48 -31 0
-48 -55 0
-48 -39 0
-48 -71 0
-48 -23 0
-48 -64 0
-48 -32 0
-48 -56 0
-48 -40 0
-48 -72 0
-48 -24 0
-48 -49 0
-48 -65 0
-48 -33 0
-48 -57 0
-48 -41 0
-48 -73 0
-48 -25 0
-49 -48 0
-49 -64 0
-49 -32 0
-49 -56 0
-49 -40 0
-49 -72 0
-49 -24 0
-49 -65 0
-49 -33 0
-49 -57 0
-49 -41 0
-49 -73 0
-49 -25 0
-49 -50 0
-49 -66 0
-49 -34 0
-49 -58 0
-49 -42 0
-49 -74 0
-49 -26 0
-50 -49 0
-50 -65 0
-50 -33 0
-50 -57 0
-50 -41 0
-50 -73 0
-50 -25 0
-50 -66 0
-50 -34 0
-50 -58 0
-50 -42 0
-50 -74 0
-50 -26 0
-50 -51 0
-50 -67 0
-50 -35 0
-50 -59 0
-50 -43 0
-50 -75 0
-50 -27 0
-51 -50 0
-51 -66 0
-51 -34 0
-51 -58 0
-51 -42 0
-51 -74 0
-51 -26 0
-51 -67 0
-51 -35 0
-51 -59 0
-51 -43 0
-51 -75 0
-51 -27 0
-51 -52 0
-51 -68 0
-51 -36 0
-51 -60 0
-51 -44 0
-51 -76 0
-51 -28 0
-52 -51 0
-52 -67 0
-52 -35 0
-52 -59 0
-52 -43 0
-52 -75 0
-52 -27 0
-52 -68 0
-52 -36 0
-52 -60 0
-52 -44 0
-52 -76 0
-52 -28 0
-52 -53 0
-52 -69 0
-52 -37 0
-52 -61 0
-52 -45 0
-52 -77 0
-52 -29 0
-53 -52 0
-53 -68 0
-53 -36 0
-53 -60 0
-53 -44 0
-53 -76 0
-53 -28 0
-53 -69 0
-53 -37 0
-53 -61 0
-53 -45 0
-53 -77 0
-53 -29 0
-53 -54 0
-53 -70 0
-53 -38 0
-53 -62 0
-53 -46 0
-53 -78 0
-53 -30 0
-54 -53 0
-54 -69 0
-54 -37 0
-54 -61 0
-54 -45 0
-54 -77 0
-54 -29 0
-54 -70 0
-54 -38 0
-54 -62 0
-54 -46 0
-54 -78 0
-54 -30 0
-54 -55 0
-54 -71 0
-54 -39 0
-54 -63 0
-54 -47 0
-54 -79 0
-54 -31 0
-55 -54 0
-55 -70 0
-55 -38 0
-55 -62 0
-55 -46 0
-55 -78 0
-55 -30 0
-55 -71 0
-55 -39 0
-55 -63 0
-55 -47 0
-55 -79 0
-55 -31 0
-55 -56 0
-55 -72 0
-55 -40 0
-55 -64 0
-55 -48 0
-55 -80 0
-55 -32 0
-56 -55 0
-56 -71 0
-56 -39 0
-56 -63 0
-56 -47 0
-56 -79 0
-56 -31 0
-56 -72 0
-56 -40 0
-56 -64 0
-56 -48 0
-56 -80 0
-56 -32 0
-56 -57 0
-56 -73 0
-56 -41 0
-56 -65 0
-56 -49 0
-56 -81 0
-56 -33 0
-57 -56 0
-57 -72 0
-57 -40 0
-57 -64 0
-57 -48 0
-57 -80 0
-57 -32 0
-57 -73 0
-57 -41 0
-57 -65 0
-57 -49 0
-57 -81 0
-57 -33 0
-57 -58 0
-57 -74 0
-57 -42 0
-57 -66 0
-57 -50 0
-57 -82 0
-57 -34 0
-58 -57 0
-58 -73 0
-58 -41 0
-58 -65 0
-58 -49 0
-58 -81 0
-58 -33 0
-58 -74 0
-58 -42 0
-58 -66 0
-58 -50 0
-58 -82 0
-58 -34 0
-58 -59 0
-58 -75 0
-58 -43 0
-58 -67 0
-58 -51 0
-58 -83 0
-58 -35 0
-59 -58 0
-59 -74 0
-59 -42 0
-59 -66 0
-59 -50 0
-59 -82 0
-59 -34 0
-59 -75 0
-59 -43 0
-59 -67 0
-59 -51 0
-59 -83 0
-59 -35 0
-59 -60 0
-59 -76 0
-59 -44 0
-59 -68 0
-59 -52 0
-59 -84 0
-59 -36 0
-60 -59 0
-60 -75 0
-60 -43 0
-60 -67 0
-60 -51 0
-60 -83 0
-60 -35 0
-60 -76 0
-60 -44 0
-60 -68 0
-60 -52 0
-60 -84 0
-60 -36 0
-60 -61 0
-60 -77 0
-60 -45 0
-60 -69 0
-60 -53 0
-60 -85 0
-60 -37 0
-61 -60 0
-61 -76 0
-61 -44 0
-61 -68 0
-61 -52 0
-61 -84 0
-61 -36 0
-61 -77 0
-61 -45 0
-61 -69 0
-61 -53 0
-61 -85 0
-61 -37 0
-61 -62 0
-61 -78 0
-61 -46 0
-61 -70 0
-61 -54 0
-61 -86 0
-61 -38 0
-62 -61 0
-62 -77 0
-62 -45 0
-62 -69 0
-62 -53 0
-62 -85 0
-62 -37 0
-62 -78 0
-62 -46 0
-62 -70 0
-62 -54 0
-62 -86 0
-62 -38 0
-62 -63 0
-62 -79 0
-62 -47 0
-62 -71 0
-62 -55 0
-62 -87 0
-62 -39 0
-63 -62 0
-63 -78 0
-63 -46 0
-63 -70 0
-63 -54 0
-63 -86 0
-63 -38 0
-63 -79 0
-63 -47 0
-63 -71 0
-63 -55 0
-63 -87 0
-63 -39 0
-63 -64 0
-63 -80 0
-63 -48 0
-63 -72 0
-63 -56 0
-63 -88 0
-63 -40 0
-64 -63 0
-64 -79 0
-64 -47 0
-64 -71 0
-64 -55 0
-64 -87 0
-64 -39 0
-64 -80 0
-64 -48 0
-64 -72 0
-64 -56 0
-64 -88 0
-64 -40 0
-64 -65 0
-64 -81 0
-64 -49 0
-64 -73 0
-64 -57 0
-64 -89 0
-64 -41 0
-65 -64 0
-65 -80 0
-65 -48 0
-65 -72 0
-65 -56 0
-65 -88 0
-65 -40 0
-65 -81 0
-65 -49 0
-65 -73 0
-65 -57 0
-65 -89 0
-65 -41 0
-65 -66 0
-65 -82 0
-65 -50 0
-65 -74 0
-65 -58 0
-65 -90 0
-65 -42 0
-66 -65 0
-66 -81 0
-66 -49 0
-66 -73 0
-66 -57 0
-66 -89 0
-66 -41 0
-66 -82 0
-66 -50 0
-66 -74 0
-66 -58 0
-66 -90 0
-66 -42 0
-66 -67 0
-66 -83 0
-66 -51 0
-66 -75 0
-66 -59 0
-66 -91 0
-66 -43 0
-67 -66 0
-67 -82 0
-67 -50 0
-67 -74 0
-67 -58 0
-67 -90 0
-67 -42 0
-67 -83 0
-67 -51 0
-67 -75 0
-67 -59 0
-67 -91 0
-67 -43 0
-67 -68 0
-67 -84 0
-67 -52 0
-67 -76 0
-67 -60 0
-67 -92 0
-67 -44 0
-68 -67 0
-68 -83 0
-68 -51 0
-68 -75 0
-68 -59 0
-68 -91 0
-68 -43 0
-68 -84 0
-68 -52 0
-68 -76 0
-68 -60 0
-68 -92 0
-68 -44 0
-68 -69 0
-68 -85 0
-68 -53 0
-68 -77 0
-68 -61 0
-68 -93 0
-68 -45 0
-69 -68 0
-69 -84 0
-69 -52 0
-69 -76 0
-69 -60 0
-69 -92 0
-69 -44 0
-69 -85 0
-69 -53 0
-69 -77 0
-69 -61 0
-69 -93 0
-69 -45 0
-69 -70 0
-69 -86 0
-69 -54 0
-69 -78 0
-69 -62 0
-69 -94 0
-69 -46 0
-70 -69 0
-70 -85 0
-70 -53 0
-70 -77 0
-70 -61 0
-70 -93 0
-70 -45 0
-70 -86 0
-70 -54 0
-70 -78 0
-70 -62 0
-70 -94 0
-70 -46 0
-70 -71 0
-70 -87 0
-70 -55 0
-70 -79 0
-70 -63 0
-70 -95 0
-70 -47 0
-71 -70 0
-71 -86 0
-71 -54 0
-71 -78 0
-71 -62 0
-71 -94 0
-71 -46 0
-71 -87 0
-71 -55 0
-71 -79 0
-71 -63 0
-71 -95 0
-71 -47 0
-71 -72 0
-71 -88 0
-71 -56 0
-71 -80 0
-71 -64 0
-71 -96 0
-71 -48 0
-72 -71 0
-72 -87 0
-72 -55 0
-72 -79 0
-72 -63 0
-72 -95 0
-72 -47 0
-72 -88 0
-72 -56 0
-72 -80 0
-72 -64 0
-72 -96 0
-72 -48 0
-72 -73 0
-72 -89 0
-72 -57 0
-72 -81 0
-72 -65 0
-72 -97 0
-72 -49 0
-73 -72 0
-73 -88 0
-73 -56 0
-73 -80 0
-73 -64 0
-73 -96 0
-73 -48 0
-73 -89 0
-73 -57 0
-73 -81 0
-73 -65 0
-73 -97 0
-73 -49 0
-73 -74 0
-73 -90 0
-73 -58 0
-73 -82 0
-73 -66 0
-73 -98 0
-73 -50 0
-74 -73 0
-74 -89 0
-74 -57 0
-74 -81 0
-74 -65 0
-74 -97 0
-74 -49 0
-74 -90 0
-74 -58 0
-74 -82 0
-74 -66 0
-74 -98 0
-74 -50 0
-74 -75 0
-74 -91 0
-74 -59 0
-74 -83 0
-74 -67 0
-74 -99 0
-74 -51 0
-75 -74 0
-75 -90 0
-75 -58 0
-75 -82 0
-75 -66 0
-75 -98 0
-75 -50 0
-75 -91 0
-75 -59 0
-75 -83 0
-75 -67 0
-75 -99 0
-75 -51 0
-75 -76 0
-75 -92 0
-75 -60 0
-75 -84 0
-75 -68 0
-75 -100 0
-75 -52 0
-76 -75 0
-76 -91 0
-76 -59 0
-76 -83 0
-76 -67 0
-76 -99 0
-76 -51 0
-76 -92 0
-76 -60 0
-76 -84 0
-76 -68 0
-76 -100 0
-76 -52 0
-76 -77 0
-76 -93 0
-76 -61 0
-76 -85 0
-76 -69 0
-76 -101 0
-76 -53 0
-77 -76 0
-77 -92 0
-77 -60 0
-77 -84 0
-77 -68 0
-77 -100 0
-77 -52 0
-77 -93 0
-77 -61 0
-77 -85 0
-77 -69 0
-77 -101 0
-77 -53 0
-77 -78 0
-77 -94 0
-77 -62 0
-77 -86 0
-77 -70 0
-77 -102 0
-77 -54 0
-78 -77 0
-78 -93 0
-78 -61 0
-78 -85 0
-78 -69 0
-78 -101 0
-78 -53 0
-78 -94 0
-78 -62 0
-78 -86 0
-78 -70 0
-78 -102 0
-78 -54 0
-78 -79 0
-78 -95 0
-78 -63 0
-78 -87 0
-78 -71 0
-78 -103 0
-78 -55 0
-79 -78 0
-79 -94 0
-79 -62 0
-79 -86 0
-79 -70 0
-79 -102 0
-79 -54 0
-79 -95 0
-79 -63 0
-79 -87 0
-79 -71 0
-79 -103 0
-79 -55 0
-79 -80 0
-79 -96 0
-79 -64 0
-79 -88 0
-79 -72 0
-79 -104 0
-79 -56 0
-80 -79 0
-80 -95 0
-80 -63 0
-80 -87 0
-80 -71 0
-80 -103 0
-80 -55 0
-80 -96 0
-80 -64 0
-80 -88 0
-80 -72 0
-80 -104 0
-80 -56 0
-80 -81 0
-80 -97 0
-80 -65 0
-80 -89 0
-80 -73 0
-80 -105 0
-80 -57 0
-81 -80 0
-81 -96 0
-81 -64 0
-81 -88 0
-81 -72 0
-81 -104 0
-81 -56 0
-81 -97 0
-81 -65 0
-81 -89 0
-81 -73 0
-81 -105 0
-81 -57 0
-81 -82 0
-81 -98 0
-81 -66 0
-81 -90 0
-81 -74 0
-81 -106 0
-81 -58 0
-82 -81 0
-82 -97 0
-82 -65 0
-82 -89 0
-82 -73 0
-82 -105 0
-82 -57 0
-82 -98 0
-82 -66 0
-82 -90 0
-82 -74 0
-82 -106 0
-82 -58 0
-82 -83 0
-82 -99 0
-82 -67 0
-82 -91 0
-82 -75 0
-82 -107 0
-82 -59 0
-83 -82 0
-83 -98 0
-83 -66 0
-83 -90 0
-83 -74 0
-83 -106 0
-83 -58 0
-83 -99 0
-83 -67 0
-83 -91 0
-83 -75 0
-83 -107 0
-83 -59 0
-83 -84 0
-83 -100 0
-83 -68 0
-83 -92 0
-83 -76 0
-83 -108 0
-83 -60 0
-84 -83 0
-84 -99 0
-84 -67 0
-84 -91 0
-84 -75 0
-84 -107 0
-84 -59 0
-84 -100 0
-84 -68 0
-84 -92 0
-84 -76 0
-84 -108 0
-84 -60 0
-84 -85 0
-84 -101 0
-84 -69 0
-84 -93 0
-84 -77 0
-84 -109 0
-84 -61 0
-85 -84 0
-85 -100 0
-85 -68 0
-85 -92 0
-85 -76 0
-85 -108 0
-85 -60 0
-85 -101 0
-85 -69 0
-85 -93 0
-85 -77 0
-85 -109 0
-85 -61 0
-85 -86 0
-85 -102 0
-85 -70 0
-85 -94 0
-85 -78 0
-85 -110 0
-85 -62 0
-86 -85 0
-86 -101 0
-86 -69 0
-86 -93 0
-86 -77 0
-86 -109 0
-86 -61 0
-86 -102 0
-86 -70 0
-86 -94 0
-86 -78 0
-86 -110 0
-86 -62 0
-86 -87 0
-86 -103 0
-86 -71 0
-86 -95 0
-86 -79 0
-86 -111 0
-86 -63 0
-87 -86 0
-87 -102 0
-87 -70 0
-87 -94 0
-87 -78 0
-87 -110 0
-87 -62 0
-87 -103 0
-87 -71 0
-87 -95 0
-87 -79 0
-87 -111 0
-87 -63 0
-87 -88 0
-87 -104 0
-87 -72 0
-87 -96 0
-87 -80 0
-87 -112 0
-87 -64 0
-88 -87 0
-88 -103 0
-88 -71 0
-88 -95 0
-88 -79 0
-88 -111 0
-88 -63 0
-88 -104 0
-88 -72 0
-88 -96 0
-88 -80 0
-88 -112 0
-88 -64 0
-88 -89 0
-88 -105 0
-88 -73 0
-88 -97 0
-88 -81 0
-88 -113 0
-88 -65 0
-89 -88 0
-89 -104 0
-89 -72 0
-89 -96 0
-89 -80 0
-89 -112 0
-89 -64 0
-89 -105 0
-89 -73 0
-89 -97 0
-89 -81 0
-89 -113 0
-89 -65 0
-89 -90 0
-89 -106 0
-89 -74 0
-89 -98 0
-89 -82 0
-89 -114 0
-89 -66 0
-90 -89 0
-90 -105 0
-90 -73 0
-90 -97 0
-90 -81 0
-90 -113 0
-90 -65 0
-90 -106 0
-90 -74 0
-90 -98 0
-90 -82 0
-90 -114 0
-90 -66 0
-90 -91 0
-90 -107 0
-90 -75 0
-90 -99 0
-90 -83 0
-90 -115 0
-90 -67 0
-91 -90 0
-91 -106 0
-91 -74 0
-91 -98 0
-91 -82 0
-91 -114 0
-91 -66 0
-91 -107 0
-91 -75 0
-91 -99 0
-91 -83 0
-91 -115 0
-91 -67 0
-91 -92 0
-91 -108 0
-91 -76 0
-91 -100 0
-91 -84 0
-91 -116 0
-91 -68 0
-92 -91 0
-92 -107 0
-92 -75 0
-92 -99 0
-92 -83 0
-92 -115 0
-92 -67 0
-92 -108 0
-92 -76 0
-92 -100 0
-92 -84 0
-92 -116 0
-92 -68 0
-92 -93 0
-92 -109 0
-92 -77 0
-92 -101 0
-92 -85 0
-92 -117 0
-92 -69 0
-93 -92 0
-93 -108 0
-93 -76 0
-93 -100 0
-93 -84 0
-93 -116 0
-93 -68 0
-93 -109 0
-93 -77 0
-93 -101 0
-93 -85 0
-93 -117 0
-93 -69 0
-93 -94 0
-93 -110 0
-93 -78 0
-93 -102 0
-93 -86 0
-93 -118 0
-93 -70 0
-94 -93 0
-94 -109 0
-94 -77 0
-94 -101 0
-94 -85 0
-94 -117 0
-94 -69 0
-94 -110 0
-94 -78 0
-94 -102 0
-94 -86 0
-94 -118 0
-94 -70 0
-94 -95 0
-94 -111 0
-94 -79 0
-94 -103 0
-94 -87 0
-94 -119 0
-94 -71 0
-95 -94 0
-95 -110 0
-95 -78 0
-95 -102 0
-95 -86 0
-95 -118 0
-95 -70 0
-95 -111 0
-95 -79 0
-95 -103 0
-95 -87 0
-95 -119 0
-95 -71 0
-95 -96 0
-95 -112 0
-95 -80 0
-95 -104 0
-95 -88 0
-95 -120 0
-95 -72 0
-96 -95 0
-96 -111 0
-96 -79 0
-96 -103 0
-96 -87 0
-96 -119 0
-96 -71 0
-96 -112 0
-96 -80 0
-96 -104 0
-96 -88 0
-96 -120 0
-96 -72 0
-96 -97 0
-96 -113 0
-96 -81 0
-96 -105 0
-96 -89 0
-96 -121 0
-96 -73 0
-97 -96 0
-97 -112 0
-97 -80 0
-97 -104 0
-97 -88 0
-97 -120 0
-97 -72 0
-97 -113 0
-97 -81 0
-97 -105 0
-97 -89 0
-97 -121 0
-97 -73 0
-97 -98 0
-97 -114 0
-97 -82 0
-97 -106 0
-97 -90 0
-97 -122 0
-97 -74 0
-98 -97 0
-98 -113 0
-98 -81 0
-98 -105 0
-98 -89 0
-98 -121 0
-98 -73 0
-98 -114 0
-98 -82 0
-98 -106 0
-98 -90 0
-98 -122 0
-98 -74 0
-98 -99 0
-98 -115 0
-98 -83 0
-98 -107 0
-98 -91 0
-98 -123 0
-98 -75 0
-99 -98 0
-99 -114 0
-99 -82 0
-99 -106 0
-99 -90 0
-99 -122 0
-99 -74 0
-99 -115 0
-99 -83 0
-99 -107 0
-99 -91 0
-99 -123 0
-99 -75 0
-99 -100 0
-99 -116 0
-99 -84 0
-99 -108 0
-99 -92 0
-99 -124 0
-99 -76 0
-100 -99 0
-100 -115 0
-100 -83 0
-100 -107 0
-100 -91 0
-100 -123 0
-100 -75 0
-100 -116 0
-100 -84 0
-100 -108 0
-100 -92 0
-100 -124 0
-100 -76 0
-100 -101 0
-100 -117 0
-100 -85 0
-100 -109 0
-100 -93 0
-100 -125 0
-100 -77 0
-101 -100 0
-101 -116 0
-101 -84 0
-101 -108 0
-101 -92 0
-101 -124 0
-101 -76 0
-101 -117 0
-101 -85 0
-101 -109 0
-101 -93 0
-101 -125 0
-101 -77 0
-101 -102 0
-101 -118 0
-101 -86 0
-101 -110 0
-101 -94 0
-101 -126 0
-101 -78 0
-102 -101 0
-102 -117 0
-102 -85 0
-102 -109 0
-102 -93 0
-102 -125 0
-102 -77 0
-102 -118 0
-102 -86 0
-102 -110 0
-102 -94 0
-102 -126 0
-102 -78 0
-102 -103 0
-102 -119 0
-102 -87 0
-102 -111 0
-102 -95 0
-102 -127 0
-102 -79 0
-103 -102 0
-103 -118 0
-103 -86 0
-103 -110 0
-103 -94 0
-103 -126 0
-103 -78 0
-103 -119 0
-103 -87 0
-103 -111 0
-103 -95 0
-103 -127 0
-103 -79 0
-103 -104 0
-103 -120 0
-103 -88 0
-103 -112 0
-103 -96 0
-103 -128 0
-103 -80 0
-104 -103 0
-104 -119 0
-104 -87 0
-104 -111 0
-104 -95 0
-104 -127 0
-104 -79 0
-104 -120 0
-104 -88 0
-104 -112 0
-104 -96 0
-104 -128 0
-104 -80 0
-104 -105 0
-104 -121 0
-104 -89 0
-104 -113 0
-104 -97 0
-104 -81 0
-105 -104 0
-105 -120 0
-105 -88 0
-105 -112 0
-105 -96 0
-105 -128 0
-105 -80 0
-105 -121 0
-105 -89 0
-105 -113 0
-105 -97 0
-105 -81 0
-105 -106 0
-105 -122 0
-105 -90 0
-105 -114 0
-105 -98 0
-105 -82 0
-106 -105 0
-106 -121 0
-106 -89 0
-106 -113 0
-106 -97 0
-106 -81 0
-106 -122 0
-106 -90 0
-106 -114 0
-106 -98 0
-106 -82 0
-106 -107 0
-106 -123 0
-106 -91 0
-106 -115 0
-106 -99 0
-106 -83 0
-107 -106 0
-107 -122 0
-107 -90 0
-107 -114 0
-107 -98 0
-107 -82 0
-107 -123 0
-107 -91 0
-107 -115 0
-107 -99 0
-107 -83 0
-107 -108 0
-107 -124 0
-107 -92 0
-107 -116 0
-107 -100 0
-107 -84 0
-108 -107 0
-108 -123 0
-108 -91 0
-108 -115 0
-108 -99 0
-108 -83 0
-108 -124 0
-108 -92 0
-108 -116 0
-108 -100 0
-108 -84 0
-108 -109 0
-108 -125 0
-108 -93 0
-108 -117 0
-108 -101 0
-108 -85 0
-109 -108 0
-109 -124 0
-109 -92 0
-109 -116 0
-109 -100 0
-109 -84 0
-109 -125 0
-109 -93 0
-109 -117 0
-109 -101 0
-109 -85 0
-109 -110 0
-109 -126 0
-109 -94 0
-109 -118 0
-109 -102 0
-109 -86 0
-110 -109 0
-110 -125 0
-110 -93 0
-110 -117 0
-110 -101 0
-110 -85 0
-110 -126 0
-110 -94 0
-110 -118 0
-110 -102 0
-110 -86 0
-110 -111 0
-110 -127 0
-110 -95 0
-110 -119 0
-110 -103 0
-110 -87 0
-111 -110 0
-111 -126 0
-111 -94 0
-111 -118 0
-111 -102 0
-111 -86 0
-111 -127 0
-111 -95 0
-111 -119 0
-111 -103 0
-111 -87 0
-111 -112 0
-111 -128 0
-111 -96 0
-111 -120 0
-111 -104 0
-111 -88 0
-112 -111 0
-112 -127 0
-112 -95 0
-112 -119 0
-112 -103 0
-112 -87 0
-112 -128 0
-112 -96 0
-112 -120 0
-112 -104 0
-112 -88 0
-112 -113 0
-112 -97 0
-112 -121 0
-112 -105 0
-112 -89 0
-113 -112 0
-113 -128 0
-113 -96 0
-113 -120 0
-113 -104 0
-113 -88 0
-113 -97 0
-113 -121 0
-113 -105 0
-113 -89 0
-113 -114 0
-113 -98 0
-113 -122 0
-113 -106 0
-113 -90 0
-114 -113 0
-114 -97 0
-114 -121 0
-114 -105 0
-114 -89 0
-114 -98 0
-114 -122 0
-114 -106 0
-114 -90 0
-114 -115 0
-114 -99 0
-114 -123 0
-114 -107 0
-114 -91 0
-115 -114 0
-115 -98 0
-115 -122 0
-115 -106 0
-115 -90 0
-115 -99 0
-115 -123 0
-115 -107 0
-115 -91 0
-115 -116 0
-115 -100 0
-115 -124 0
-115 -108 0
-115 -92 0
-116 -115 0
-116 -99 0
-116 -123 0
-116 -107 0
-116 -91 0
-116 -100 0
-116 -124 0
-116 -108 0
-116 -92 0
-116 -117 0
-116 -101 0
-116 -125 0
-116 -109 0
-116 -93 0
-117 -116 0
-117 -100 0
-117 -124 0
-117 -108 0
-117 -92 0
-117 -101 0
-117 -125 0
-117 -109 0
-117 -93 0
-117 -118 0
-117 -102 0
-117 -126 0
-117 -110 0
-117 -94 0
-118 -117 0
-118 -101 0
-118 -125 0
-118 -109 0
-118 -93 0
-118 -102 0
-118 -126 0
-118 -110 0
-118 -94 0
-118 -119 0
-118 -103 0
-118 -127 0
-118 -111 0
-118 -95 0
-119 -118 0
-119 -102 0
-119 -126 0
-119 -110 0
-119 -94 0
-119 -103 0
-119 -127 0
-119 -111 0
-119 -95 0
-119 -120 0
-119 -104 0
-119 -128 0
-119 -112 0
-119 -96 0
-120 -119 0
-120 -103 0
-120 -127 0
-120 -111 0
-120 -95 0
-120 -104 0
-120 -128 0
-120 -112 0
-120 -96 0
-120 -121 0
-120 -105 0
-120 -113 0
-120 -97 0
-121 -120 0
-121 -104 0
-121 -128 0
-121 -112 0
-121 -96 0
-121 -105 0
-121 -113 0
-121 -97 0
-121 -122 0
-121 -106 0
-121 -114 0
-121 -98 0
-122 -121 0
-122 -105 0
-122 -113 0
-122 -97 0
-122 -106 0
-122 -114 0
-122 -98 0
-122 -123 0
-122 -107 0
-122 -115 0
-122 -99 0
-123 -122 0
-123 -106 0
-123 -114 0
-123 -98 0
-123 -107 0
-123 -115 0
-123 -99 0
-123 -124 0
-123 -108 0
-123 -116 0
-123 -100 0
-124 -123 0
-124 -107 0
-124 -115 0
-124 -99 0
-124 -108 0
-124 -116 0
-124 -100 0
-124 -125 0
-124 -109 0
-124 -117 0
-124 -101 0
-125 -124 0
-125 -108 0
-125 -116 0
-125 -100 0
-125 -109 0
-125 -117 0
-125 -101 0
-125 -126 0
-125 -110 0
-125 -118 0
-125 -102 0
-126 -125 0
-126 -109 0
-126 -117 0
-126 -101 0
-126 -110 0
-126 -118 0
-126 -102 0
-126 -127 0
-126 -111 0
-126 -119 0
-126 -103 0
-127 -126 0
-127 -110 0
-127 -118 0
-127 -102 0
-127 -111 0
-127 -119 0
-127 -103 0
-127 -128 0
-127 -112 0
-127 -120 0
-127 -104 0
-128 -127 0
-128 -111 0
-128 -119 0
-128 -103 0
-128 -112 0
-128 -120 0
-128 -104 0
-128 -113 0
-128 -121 0
-128 -105 0
